% Auto-generated by scripts/generate_dzn.py
% problem_type   = regex
% instance       = regex_27
% source_json    = instances_json/1_medium_blowup/regex_27.json
% blowup         = 2.1739130434782608
% representation = NFA

mode = 1;

var_count = 19;
n_constraints = 2;
Q = 15;
S = 3;
q0 = [1, 1];
F = [{8}, {15}];
weights = [8, 1, 9, 5, 8, 4, 1, 3, 1, 5, 2, 8, 4, 1, 10, 4, 10, 8, 6];
d_dfa = array3d(1..2, 1..15, 1..3, [
  % k = 1
    0, 0, 0,
    0, 0, 0,
    0, 0, 0,
    0, 0, 0,
    0, 0, 0,
    0, 0, 0,
    0, 0, 0,
    0, 0, 0,
    0, 0, 0,
    0, 0, 0,
    0, 0, 0,
    0, 0, 0,
    0, 0, 0,
    0, 0, 0,
    0, 0, 0,

  % k = 2
    0, 0, 0,
    0, 0, 0,
    0, 0, 0,
    0, 0, 0,
    0, 0, 0,
    0, 0, 0,
    0, 0, 0,
    0, 0, 0,
    0, 0, 0,
    0, 0, 0,
    0, 0, 0,
    0, 0, 0,
    0, 0, 0,
    0, 0, 0,
    0, 0, 0
]);
d_nfa = array3d(1..2, 1..15, 1..3, [
  % k = 1
    {1}, {1}, {1, 2},
    {}, {3}, {},
    {4}, {4}, {4},
    {5}, {5}, {5},
    {6}, {6}, {6},
    {7}, {7}, {7},
    {8}, {8}, {8},
    {}, {}, {},
    {}, {}, {},
    {}, {}, {},
    {}, {}, {},
    {}, {}, {},
    {}, {}, {},
    {}, {}, {},
    {}, {}, {},

  % k = 2
    {1}, {1}, {2},
    {2}, {2}, {3},
    {3}, {3}, {4},
    {4}, {4}, {5},
    {5}, {5}, {6},
    {6}, {6}, {7},
    {7}, {7}, {8},
    {8}, {8}, {9},
    {9}, {9}, {10},
    {10}, {10}, {11},
    {11}, {11}, {12},
    {12}, {12}, {13},
    {13}, {13}, {14},
    {14}, {14}, {15},
    {15}, {15}, {}
]);
